p cnf 184 167
-5 169 -175 -177 -179 0 
-6 169 -175 -177 -179 0 
-7 169 -175 -177 -179 0 
-8 169 -175 -177 -179 0 
-9 169 -175 -177 -179 0 
-10 -11 170 170 -11 0 
-12 35 108 124 -13 16 114 163 -14 170 -11 0 
-15 -16 13 114 163 170 -11 0 
-17 170 -11 0 
-18 170 -11 0 
-19 170 -11 0 
-20 170 -11 0 
-21 74 170 -11 0 
-12 35 108 124 -14 170 -11 0 
-22 70 97 102 112 169 -175 -177 -179 0 
-23 -24 169 -175 -177 -179 0 
-27 169 -175 -177 -179 0 
-28 -29 -30 46 48 79 93 110 165 171 -169 -175 -177 -179 0 
-31 34 45 72 95 111 120 146 149 155 172 -169 -175 -177 -179 0 
-32 86 -33 -34 31 45 72 95 111 120 146 149 155 -35 12 108 124 173 -169 -175 -177 -179 0 
-36 38 47 51 137 139 172 -169 -175 -177 -179 0 
-37 85 -38 36 47 51 137 139 174 -4 -53 -169 -175 -177 -179 0 
-39 -40 169 -175 -177 -179 0 
-39 -41 50 83 119 138 157 167 169 -175 -177 -179 0 
-42 169 -175 -177 -179 0 
-44 -45 31 34 72 95 111 120 146 149 155 169 -175 -177 -179 0 
-44 -46 30 48 79 93 110 165 169 -175 -177 -179 0 
-47 36 38 51 137 139 169 -175 -177 -179 0 
-44 -48 30 46 79 93 110 165 169 -175 -177 -179 0 
-49 169 -175 -177 -179 0 
-50 41 83 119 138 157 167 169 -175 -177 -179 0 
-51 36 38 47 137 139 169 -175 -177 -179 0 
-52 25 -47 36 38 51 137 139 169 -175 -177 -179 0 
-53 4 -54 169 -175 -177 -179 0 
-44 -49 169 -175 -177 -179 0 
-55 169 -175 -177 -179 0 
-57 169 -175 -177 -179 0 
-58 -59 175 -169 -177 -179 0 
-60 63 65 67 136 141 153 158 160 175 -169 -177 -179 0 
-61 176 -169 -175 -177 -179 0 
-62 176 -169 -175 -177 -179 0 
-63 60 65 67 136 141 153 158 160 169 -175 -177 -179 0 
-64 169 -175 -177 -179 0 
-65 60 63 67 136 141 153 158 160 174 -4 -53 -169 -175 -177 -179 0 
-58 169 -175 -177 -179 0 
-66 169 -175 -177 -179 0 
-67 60 63 65 136 141 153 158 160 169 -175 -177 -179 0 
-68 169 -175 -177 -179 0 
-69 177 -169 -175 -179 0 
-70 22 97 102 112 -44 169 -175 -177 -179 0 
-71 169 -175 -177 -179 0 
-72 31 34 45 95 111 120 146 149 155 169 -175 -177 -179 0 
-73 170 -11 0 
-74 21 178 -99 -154 -169 -175 -177 -179 0 
-75 -76 -77 169 -175 -177 -179 0 
-12 35 108 124 -13 16 114 163 -77 169 -175 -177 -179 0 
-12 35 108 124 -77 169 -175 -177 -179 0 
-78 132 -79 30 46 48 93 110 165 -77 169 -175 -177 -179 0 
-77 177 -169 -175 -179 0 
-82 169 -175 -177 -179 0 
-83 41 50 119 138 157 167 169 -175 -177 -179 0 
-84 172 -169 -175 -177 -179 0 
-85 37 -86 32 172 -169 -175 -177 -179 0 
-87 169 -175 -177 -179 0 
-88 178 -99 -154 -169 -175 -177 -179 0 
-11 170 169 -175 -177 -179 0 
-89 -90 169 -175 -177 -179 0 
-48 30 46 79 93 110 165 -91 169 -175 -177 -179 0 
-37 85 -30 46 48 79 93 110 165 169 -175 -177 -179 0 
-51 36 38 47 137 139 -37 85 169 -175 -177 -179 0 
-93 30 46 48 79 110 165 169 -175 -177 -179 0 
-78 132 -79 30 46 48 93 110 165 -94 169 -175 -177 -179 0 
-95 31 34 45 72 111 120 146 149 155 -94 177 -169 -175 -179 0 
-96 179 -169 -175 -177 0 
-97 22 70 102 112 -98 169 -175 -177 -179 0 
-62 -99 154 -31 34 45 72 95 111 120 146 149 155 -100 169 -175 -177 -179 0 
-81 -4 53 -99 154 169 -175 -177 -179 0 
-67 60 63 65 136 141 153 158 160 -77 169 -175 -177 -179 0 
-101 -13 16 114 163 169 -175 -177 -179 0 
-102 22 70 97 112 -77 169 -175 -177 -179 0 
-51 36 38 47 137 139 -103 169 -175 -177 -179 0 
-79 30 46 48 93 110 165 -12 35 108 124 -77 169 -175 -177 -179 0 
-50 41 83 119 138 157 167 -77 169 -175 -177 -179 0 
-101 -77 169 -175 -177 -179 0 
-104 169 -175 -177 -179 0 
-37 85 -79 30 46 48 93 110 165 169 -175 -177 -179 0 
-37 85 -67 60 63 65 136 141 153 158 160 169 -175 -177 -179 0 
-52 25 -54 169 -175 -177 -179 0 
-67 60 63 65 136 141 153 158 160 -79 30 46 48 93 110 165 169 -175 -177 -179 0 
-52 25 -49 169 -175 -177 -179 0 
-12 35 108 124 -13 16 114 163 -105 169 -175 -177 -179 0 
-105 169 -175 -177 -179 0 
-106 -77 169 -175 -177 -179 0 
-107 131 -77 169 -175 -177 -179 0 
-108 12 35 124 -109 169 -175 -177 -179 0 
-110 30 46 48 79 93 165 -111 31 34 45 72 95 120 146 149 155 169 -175 -177 -179 0 
-112 22 70 97 102 -113 -114 13 16 163 169 -175 -177 -179 0 
-115 169 -175 -177 -179 0 
-116 172 -169 -175 -177 -179 0 
-117 178 -99 -154 -169 -175 -177 -179 0 
-118 178 -99 -154 -169 -175 -177 -179 0 
-47 36 38 51 137 139 -119 41 50 83 138 157 167 169 -175 -177 -179 0 
-37 85 -120 31 34 45 72 95 111 146 149 155 169 -175 -177 -179 0 
-55 -65 60 63 67 136 141 153 158 160 169 -175 -177 -179 0 
-68 -79 30 46 48 93 110 165 -121 169 -175 -177 -179 0 
-122 169 -175 -177 -179 0 
-123 169 -175 -177 -179 0 
-124 12 35 108 169 -175 -177 -179 0 
-125 -126 178 -99 -154 -169 -175 -177 -179 0 
-126 178 -99 -154 -169 -175 -177 -179 0 
-126 175 -169 -177 -179 0 
-125 -126 175 -169 -177 -179 0 
-12 35 108 124 -105 169 -175 -177 -179 0 
-95 31 34 45 72 111 120 146 149 155 -105 169 -175 -177 -179 0 
-78 132 -79 30 46 48 93 110 165 -105 169 -175 -177 -179 0 
-95 31 34 45 72 111 120 146 149 155 -105 177 -169 -175 -179 0 
-127 129 -105 169 -175 -177 -179 0 
-105 179 -169 -175 -177 0 
-75 -76 -105 169 -175 -177 -179 0 
-128 -129 127 -105 169 -175 -177 -179 0 
-73 169 -175 -177 -179 0 
-130 -11 170 169 -175 -177 -179 0 
-131 107 169 -175 -177 -179 0 
-132 78 -54 169 -175 -177 -179 0 
-95 31 34 45 72 111 120 146 149 155 -50 41 83 119 138 157 167 169 -175 -177 -179 0 
-12 35 108 124 169 -175 -177 -179 0 
-133 169 -175 -177 -179 0 
-134 169 -175 -177 -179 0 
-35 12 108 124 -135 180 -169 -175 -177 -179 0 
-44 169 -175 -177 -179 0 
-136 60 63 65 67 141 153 158 160 169 -175 -177 -179 0 
-137 36 38 47 51 139 175 -169 -177 -179 0 
-138 41 50 83 119 157 167 178 -99 -154 -169 -175 -177 -179 0 
-137 36 38 47 51 139 181 -169 -175 -177 -179 0 
-139 36 38 47 51 137 -140 26 -52 25 -141 60 63 65 67 136 153 158 160 -142 181 -169 -175 -177 -179 0 
-140 26 -52 25 -141 60 63 65 67 136 153 158 160 -142 181 -169 -175 -177 -179 0 
-143 169 -175 -177 -179 0 
-144 169 -175 -177 -179 0 
-145 169 -175 -177 -179 0 
-146 31 34 45 72 95 111 120 149 155 -147 182 -150 -169 -175 -177 -179 0 
-148 176 -169 -175 -177 -179 0 
-149 31 34 45 72 95 111 120 146 155 176 -169 -175 -177 -179 0 
-140 26 -150 -151 -149 31 34 45 72 95 111 120 146 155 176 -169 -175 -177 -179 0 
-152 -153 60 63 65 67 136 141 158 160 -154 99 -155 31 34 45 72 95 111 120 146 149 183 -169 -175 -177 -179 0 
-139 36 38 47 51 137 -141 60 63 65 67 136 153 158 160 -142 181 -169 -175 -177 -179 0 
-156 175 -169 -177 -179 0 
-157 41 50 83 119 138 167 174 -4 -53 -169 -175 -177 -179 0 
-158 60 63 65 67 136 141 153 160 178 -99 -154 -169 -175 -177 -179 0 
-60 63 65 67 136 141 153 158 160 178 -99 -154 -169 -175 -177 -179 0 
-159 178 -99 -154 -169 -175 -177 -179 0 
-159 -114 13 16 163 178 -99 -154 -169 -175 -177 -179 0 
-160 60 63 65 67 136 141 153 158 178 -99 -154 -169 -175 -177 -179 0 
-154 99 184 -169 -175 -177 -179 0 
-81 -161 175 -169 -177 -179 0 
-162 -163 13 16 114 175 -169 -177 -179 0 
-164 178 -99 -154 -169 -175 -177 -179 0 
-165 30 46 48 79 93 110 178 -99 -154 -169 -175 -177 -179 0 
-159 175 -169 -177 -179 0 
-165 30 46 48 79 93 110 175 -169 -177 -179 0 
-81 -132 78 -12 35 108 124 169 -175 -177 -179 0 
-160 60 63 65 67 136 141 153 158 -166 169 -175 -177 -179 0 
-102 22 70 97 112 -13 16 114 163 169 -175 -177 -179 0 
-167 41 50 83 119 138 157 -168 178 -99 -154 -169 -175 -177 -179 0 
-167 41 50 83 119 138 157 -168 174 -4 -53 -169 -175 -177 -179 0 
-50 41 83 119 138 157 167 -13 16 114 163 169 -175 -177 -179 0 
-78 132 -79 30 46 48 93 110 165 -13 16 114 163 169 -175 -177 -179 0 
-51 36 38 47 137 139 -13 16 114 163 169 -175 -177 -179 0 
